Using license file /home/anupa/gurobi.lic
Academic license - for non-commercial use only
Changed value of parameter NonConvex to 2
   Prev: -1  Min: -1  Max: 2  Default: -1
Changed value of parameter TimeLimit to 120.0
   Prev: inf  Min: 0.0  Max: inf  Default: inf

Gurobi Optimizer version 9.0.0 build v9.0.0rc2 (linux64)
Optimize a model with 15 rows, 21 columns and 32 nonzeros
Model fingerprint: 0x4a8d25f7
Model has 3 quadratic constraints
Model has 3 general constraints
Variable types: 19 continuous, 2 integer (0 binary)
Coefficient statistics:
  Matrix range     [1e-04, 3e+04]
  QMatrix range    [1e+00, 1e+00]
  QLMatrix range   [1e+00, 1e+00]
  Objective range  [1e+00, 1e+00]
  Bounds range     [1e+00, 3e+04]
  RHS range        [1e+00, 5e+01]

---------------------------------------------------------------------------
Multi-objectives: starting optimization with 2 objectives ... 
---------------------------------------------------------------------------

Multi-objectives: applying initial presolve ...
---------------------------------------------------------------------------

Presolve removed 2 rows and 0 columns
Presolve time: 0.00s
Presolved: 25 rows and 22 columns
---------------------------------------------------------------------------

Multi-objectives: optimize objective 1 (ns) ...
---------------------------------------------------------------------------

Presolve removed 10 rows and 8 columns
Presolve time: 0.00s
Presolved: 27 rows, 15 columns, 68 nonzeros
Presolved model has 1 SOS constraint(s)
Presolved model has 3 bilinear constraint(s)
Variable types: 10 continuous, 5 integer (3 binary)

Root relaxation: objective 1.461872e+01, 9 iterations, 0.00 seconds

    Nodes    |    Current Node    |     Objective Bounds      |     Work
 Expl Unexpl |  Obj  Depth IntInf | Incumbent    BestBd   Gap | It/Node Time

     0     0   14.61872    0    4          -   14.61872      -     -    0s
     0     0   15.64817    0    4          -   15.64817      -     -    0s
     0     0   15.71978    0    2          -   15.71978      -     -    0s
     0     0   15.71978    0    2          -   15.71978      -     -    0s
H    0     0                      17.8571429   15.71978  12.0%     -    0s
     0     2   15.71978    0    2   17.85714   15.71978  12.0%     -    0s

Cutting planes:
  MIR: 2
  RLT: 1

Explored 3 nodes (19 simplex iterations) in 0.00 seconds
Thread count was 12 (of 12 available processors)

Solution count 1: 17.8571 

Optimal solution found (tolerance 1.00e-04)
Best objective 1.785714285714e+01, best bound 1.785714285714e+01, gap 0.0000%
---------------------------------------------------------------------------

Multi-objectives: optimize objective 2 (res) ...
---------------------------------------------------------------------------


Loaded user MIP start with objective 85.0575

Presolve removed 20 rows and 16 columns
Presolve time: 0.00s
Presolved: 10 rows, 6 columns, 27 nonzeros
Presolved model has 1 bilinear constraint(s)
Variable types: 5 continuous, 1 integer (1 binary)

Root relaxation: objective 7.311083e+01, 4 iterations, 0.00 seconds

    Nodes    |    Current Node    |     Objective Bounds      |     Work
 Expl Unexpl |  Obj  Depth IntInf | Incumbent    BestBd   Gap | It/Node Time

*    0     0               0      73.1108274   73.11083  0.00%     -    0s

Explored 0 nodes (4 simplex iterations) in 0.00 seconds
Thread count was 12 (of 12 available processors)

Solution count 2: 73.1108 85.0575 

Optimal solution found (tolerance 1.00e-04)
Best objective 7.311082744598e+01, best bound 7.311082744598e+01, gap 0.0000%

---------------------------------------------------------------------------
Multi-objectives: solved in 0.00 seconds, solution count 2

--------------------------------------------------
Model update took: 2.1696090698242188e-05 seconds
Model optimize took: 0.004591226577758789 seconds
--------------------------------------------------

Solution quality statistics for model netmon :
  Maximum violation:
    Bound       : 0.00000000e+00
    Constraint  : 1.42108547e-14 (ns_single_cpu_1)
    Integrality : 0.00000000e+00

Throughput: 56.0 Mpps, ns per packet: 17.857142857142858
Resources: 73.11082744598389

Sketch (0) (cm: eps0: 1.25e-06, del0: 0.05, min_mem: 8494.6328125)
Par: 1, Rows: 3
1.000    0.000    
Total frac: 1.000

Device (0) cpu_1:
cores_sketch: 5.0, cores_dpdk: 2.0
Rows total: 3.0
Mem total: 25483.8984375
Throughput: 56.0

Device (1) p4_1:
Rows total: 0.0
Mem total: 0.0
Throughput: 148.0
--------------------------------------------------
